37 6
26 36 23 5 15 0 14 27 12 13 24 29 7 0 18 35 10 31 8 0 37 21 34 3 22 17 0 30 9 6 4 2 16 28 0 25 33 11 20 32 19 

1353

Route #1: 26 36 23 5 15 
Route #2: 14 27 12 13 24 29 7 
Route #3: 18 35 10 31 8 
Route #4: 37 21 34 3 22 17 
Route #5: 30 9 6 4 2 16 28 
Route #6: 25 33 11 20 32 19 